c nombre: 9
c densidad: 0.1
p edges 40 78
e 1 10
e 1 11
e 2 4
e 2 12
e 2 16
e 3 13
e 3 14
e 3 28
e 3 30
e 3 33
e 4 7
e 4 12
e 4 13
e 4 15
e 4 18
e 4 27
e 5 26
e 5 28
e 5 29
e 5 34
e 5 36
e 6 24
e 7 10
e 7 25
e 7 40
e 8 10
e 8 23
e 8 29
e 9 19
e 9 20
e 9 23
e 9 28
e 9 36
e 10 11
e 10 13
e 10 25
e 10 40
e 11 14
e 11 16
e 11 21
e 11 26
e 12 15
e 12 16
e 12 19
e 12 39
e 15 37
e 16 20
e 16 22
e 16 31
e 16 37
e 17 22
e 17 24
e 17 33
e 18 33
e 19 38
e 20 29
e 20 38
e 21 33
e 21 36
e 22 24
e 22 34
e 22 35
e 23 25
e 24 29
e 24 32
e 24 37
e 25 29
e 25 31
e 26 30
e 27 37
e 27 39
e 28 30
e 28 32
e 29 31
e 29 39
e 32 33
e 36 40
e 37 40
